
Value of objective function: 14.00000000

Actual values of the variables:
t1                              1
t2                              0
t3                              1
t4                              0
t5                              1
t6                              0
t7                              1
t8                              0
t9                              1
t10                             0
t11                             0
t12                             1
t13                             1
t14                             1
t15                             0
t16                             1
t17                             0
t18                             0
t19                             1
t20                             0
t21                             0
t22                             1
t23                             1
t24                             1
t25                             1
t26                             0
t27                             0
t28                             0
